1 100 599 1 3 1 0 3 1 2 3 1 3
0 40.0 50.0 0.0 0.0 0 240
2 25.0 85.0 10.0 20.0 0 47.8 95.5 143.2 191 1 90 1 0 0 0 0 0 0 0 1 0
3 22.0 75.0 10.0 30.0 0 49.8 99.5 149.2 199 0 45 0 0 0 0 0 0 0 1 0 0
4 22.0 85.0 10.0 10.0 0 47.5 95 142.5 190 1 1 0 0 0 0 0 0 1 1 0 0
5 20.0 80.0 10.0 40.0 141 148.5 156 163.5 171 1 88 0 0 1 0 0 0 1 0 0 0
6 20.0 85.0 10.0 20.0 0 47.2 94.5 141.8 189 1 39 1 1 0 0 0 1 0 0 0 0
7 18.0 75.0 10.0 20.0 0 49 98 147 196 0 45 0 1 0 0 0 0 0 0 0 0
8 15.0 75.0 10.0 20.0 0 48.5 97 145.5 194 1 60 0 0 0 0 1 0 0 0 0 0
9 15.0 80.0 10.0 10.0 91 98.5 106 113.5 121 1 80 0 0 0 0 0 0 0 0 0 0
10 10.0 35.0 10.0 20.0 91 98.5 106 113.5 121 1 92 0 0 0 0 0 1 0 0 0 0
11 10.0 40.0 10.0 30.0 0 49.5 99 148.5 198 1 57 0 0 0 0 1 0 1 0 0 0
12 8.0 40.0 10.0 40.0 59 66.5 74 81.5 89 1 80 1 1 0 0 0 0 0 0 1 1
13 8.0 45.0 10.0 20.0 0 49.2 98.5 147.8 197 1 36 0 1 0 0 0 1 0 0 0 0
14 5.0 35.0 10.0 10.0 142 149.5 157 164.5 172 1 66 0 0 0 0 0 1 0 1 1 0
15 5.0 45.0 10.0 10.0 0 48.5 97 145.5 194 1 63 0 1 0 0 0 0 0 0 0 0
16 2.0 40.0 10.0 20.0 58 65.5 73 80.5 88 1 86 0 1 0 0 0 0 0 0 0 0
17 0.0 40.0 10.0 20.0 0 47 94 141 188 1 33 0 1 0 0 0 1 1 0 1 0
18 0.0 45.0 10.0 20.0 0 47.2 94.5 141.8 189 1 1 0 0 0 0 0 0 0 0 1 0
19 44.0 5.0 10.0 20.0 0 46 92 138 184 1 93 0 1 0 0 0 1 0 1 0 0
20 42.0 10.0 10.0 40.0 0 47.2 94.5 141.8 189 1 75 0 1 0 0 1 0 0 0 0 0
21 42.0 15.0 10.0 10.0 0 48.5 97 145.5 194 1 78 1 0 0 0 0 0 0 0 0 0
22 40.0 5.0 10.0 10.0 0 46.2 92.5 138.8 185 1 66 0 0 1 1 0 0 0 0 0 0
23 40.0 15.0 10.0 40.0 0 48.8 97.5 146.2 195 1 82 1 0 0 0 0 0 0 0 0 0
24 38.0 5.0 10.0 30.0 65 72.5 80 87.5 95 1 65 1 1 0 0 0 0 0 0 0 0
25 38.0 15.0 10.0 10.0 0 48.5 97 145.5 194 1 64 0 0 0 0 0 0 1 0 0 0
26 35.0 5.0 10.0 20.0 154 161.5 169 176.5 184 1 63 1 1 0 1 0 0 1 0 0 0
27 95.0 30.0 10.0 30.0 0 42.8 85.5 128.2 171 1 82 0 1 0 0 1 0 0 0 1 0
28 95.0 35.0 10.0 20.0 0 43 86 129 172 1 95 0 1 0 0 1 0 0 0 0 0
29 92.0 30.0 10.0 10.0 0 43.5 87 130.5 174 1 35 0 1 0 1 0 0 0 0 1 0
30 90.0 35.0 10.0 10.0 0 44.2 88.5 132.8 177 1 86 1 0 0 0 1 0 0 0 0 0
31 88.0 30.0 10.0 10.0 0 44.5 89 133.5 178 1 93 0 0 0 0 0 0 0 0 1 1
32 88.0 35.0 10.0 20.0 0 44.8 89.5 134.2 179 1 68 0 0 0 0 0 0 1 0 1 0
33 87.0 30.0 10.0 10.0 0 44.5 89 133.5 178 1 31 0 0 1 1 0 0 1 0 0 0
34 85.0 25.0 10.0 10.0 0 44.5 89 133.5 178 1 31 0 1 0 0 0 0 0 1 0 0
35 85.0 35.0 10.0 30.0 0 45.5 91 136.5 182 1 19 0 0 0 1 0 0 1 0 0 0
36 67.0 85.0 10.0 20.0 0 46.2 92.5 138.8 185 1 75 0 0 1 0 0 0 1 0 0 0
37 65.0 85.0 10.0 40.0 0 46.5 93 139.5 186 1 53 0 0 0 0 0 0 0 0 0 0
38 65.0 82.0 10.0 10.0 0 47.2 94.5 141.8 189 1 68 0 0 0 0 0 1 0 0 0 0
39 62.0 80.0 10.0 30.0 75 82.5 90 97.5 105 1 47 0 0 0 0 0 0 0 0 0 1
40 60.0 80.0 10.0 10.0 0 48.2 96.5 144.8 193 1 70 1 0 1 0 0 1 1 0 0 0
41 60.0 85.0 10.0 30.0 0 47.2 94.5 141.8 189 1 39 1 1 1 0 0 0 0 0 0 0
42 58.0 75.0 10.0 20.0 0 49.8 99.5 149.2 199 1 56 1 1 0 0 1 1 0 0 1 0
43 55.0 80.0 10.0 10.0 0 49 98 147 196 1 18 0 0 0 1 1 1 0 0 0 0
44 55.0 85.0 10.0 20.0 0 47.8 95.5 143.2 191 1 61 0 0 0 1 0 0 0 0 0 1
45 55.0 82.0 10.0 10.0 64 71.5 79 86.5 94 1 8 0 1 0 0 0 0 0 1 0 0
46 20.0 82.0 10.0 10.0 0 48 96 144 192 1 87 1 0 0 0 0 1 0 0 1 1
47 18.0 80.0 10.0 10.0 0 48 96 144 192 1 23 1 0 0 1 0 0 0 0 0 0
48 2.0 45.0 10.0 10.0 0 47.8 95.5 143.2 191 1 11 0 0 0 0 0 0 0 0 0 0
49 42.0 5.0 10.0 10.0 0 46 92 138 184 1 96 0 0 0 1 1 0 0 1 0 0
50 42.0 12.0 10.0 10.0 0 47.8 95.5 143.2 191 1 64 0 0 0 0 0 1 0 0 1 1
51 72.0 35.0 10.0 30.0 0 48.5 97 145.5 194 1 2 0 0 1 0 0 1 0 0 1 0
52 55.0 20.0 10.0 19.0 0 49 98 147 196 1 14 1 0 0 0 0 0 0 0 0 0
53 25.0 30.0 10.0 3.0 0 51.2 102.5 153.8 205 1 61 1 1 0 0 0 1 0 0 0 0
54 20.0 50.0 10.0 5.0 91 98.5 106 113.5 121 1 1 1 0 0 0 0 0 0 0 0 0
55 55.0 60.0 10.0 16.0 0 52.8 105.5 158.2 211 1 86 0 0 0 1 0 0 0 1 0 0
56 30.0 60.0 10.0 16.0 140 147.5 155 162.5 170 1 92 0 1 1 0 0 0 0 0 0 0
57 50.0 35.0 10.0 19.0 0 52.8 105.5 158.2 211 1 50 0 0 0 1 0 0 0 1 0 0
58 30.0 25.0 10.0 23.0 0 50.8 101.5 152.2 203 1 85 0 1 0 1 0 0 0 0 0 0
59 15.0 10.0 10.0 20.0 152 159.5 167 174.5 182 1 20 0 0 0 0 0 0 0 0 0 1
60 10.0 20.0 10.0 19.0 0 46.8 93.5 140.2 187 1 82 0 0 0 1 1 0 0 0 1 0
61 15.0 60.0 10.0 17.0 0 50.8 101.5 152.2 203 1 93 0 0 0 0 0 0 0 0 0 1
62 45.0 65.0 10.0 9.0 0 53.5 107 160.5 214 1 62 0 0 1 0 0 0 0 0 0 0
63 65.0 35.0 10.0 3.0 52 59.5 67 74.5 82 1 90 0 1 0 0 0 0 0 1 0 0
64 65.0 20.0 10.0 6.0 0 47.5 95 142.5 190 1 73 0 0 0 0 0 1 1 0 1 0
65 45.0 30.0 10.0 17.0 0 52.2 104.5 156.8 209 1 71 0 0 1 0 0 0 0 0 0 0
66 35.0 40.0 10.0 16.0 0 54.5 109 163.5 218 1 17 0 0 1 0 0 0 1 1 0 0
67 41.0 37.0 10.0 16.0 0 54 108 162 216 1 8 0 0 1 0 1 0 0 0 0 0
68 64.0 42.0 10.0 9.0 70 77.5 85 92.5 100 1 9 0 0 0 0 0 0 0 0 0 1
69 40.0 60.0 10.0 21.0 0 55 110 165 220 0 79 0 0 0 0 1 0 0 1 0 0
70 31.0 52.0 10.0 27.0 41 48.5 56 63.5 71 1 19 1 0 0 0 0 0 0 0 0 1
71 35.0 69.0 10.0 23.0 0 52.5 105 157.5 210 0 14 0 0 0 0 0 0 0 1 0 1
72 65.0 55.0 10.0 14.0 0 51 102 153 204 1 2 0 1 0 1 0 0 0 0 0 0
73 63.0 65.0 10.0 8.0 0 50.5 101 151.5 202 1 38 1 0 0 0 1 0 1 0 0 0
74 2.0 60.0 10.0 5.0 0 47.5 95 142.5 190 1 77 0 0 0 0 1 0 0 0 0 0
75 20.0 20.0 10.0 8.0 141 148.5 156 163.5 171 1 31 0 0 0 1 0 0 0 0 0 0
76 5.0 5.0 10.0 16.0 0 43 86 129 172 1 15 0 0 1 0 0 1 1 0 0 1
77 60.0 12.0 10.0 31.0 75 82.5 90 97.5 105 1 43 1 0 1 0 0 1 0 0 0 0
78 23.0 3.0 10.0 7.0 150 157.5 165 172.5 180 1 3 0 0 1 0 0 0 0 0 0 1
79 8.0 56.0 10.0 27.0 0 49.2 98.5 147.8 197 0 70 0 0 0 0 0 0 0 0 0 1
80 6.0 68.0 10.0 30.0 89 96.5 104 111.5 119 1 25 0 0 0 0 0 0 0 0 0 0
81 47.0 47.0 10.0 13.0 0 55.5 111 166.5 222 1 16 0 0 0 0 1 0 1 0 0 0
82 49.0 58.0 10.0 10.0 0 54.2 108.5 162.8 217 1 43 1 0 0 0 1 1 0 1 0 0
83 27.0 43.0 10.0 9.0 0 53.8 107.5 161.2 215 1 52 0 0 0 0 0 1 0 0 0 0
84 37.0 31.0 10.0 14.0 0 52.5 105 157.5 210 1 64 1 0 0 0 0 0 0 0 1 0
85 57.0 29.0 10.0 18.0 96 103.5 111 118.5 126 1 59 0 0 0 1 1 1 0 1 0 0
86 63.0 23.0 10.0 2.0 0 48.5 97 145.5 194 1 52 0 0 1 0 0 0 0 0 0 0
87 21.0 24.0 10.0 28.0 0 49.2 98.5 147.8 197 1 5 0 0 0 0 0 0 1 0 0 0
88 12.0 24.0 10.0 13.0 90 97.5 105 112.5 120 1 34 0 1 0 0 0 0 0 0 1 0
89 24.0 58.0 10.0 19.0 0 53 106 159 212 1 10 1 0 0 0 0 0 0 0 0 0
90 67.0 5.0 10.0 25.0 0 44.2 88.5 132.8 177 1 84 0 0 0 1 0 0 0 1 0 0
91 37.0 47.0 10.0 6.0 0 56.2 112.5 168.8 225 1 96 0 1 0 0 0 1 1 0 0 1
92 49.0 42.0 10.0 13.0 0 54.2 108.5 162.8 217 1 68 0 0 0 0 0 0 0 0 1 0
93 53.0 43.0 10.0 14.0 14 21.5 29 36.5 44 1 10 0 0 0 1 0 0 1 0 1 0
94 61.0 52.0 10.0 3.0 0 52 104 156 208 1 59 0 0 0 0 0 0 0 0 0 0
95 57.0 48.0 10.0 23.0 0 53 106 159 212 1 67 0 0 1 0 0 1 0 0 1 0
96 56.0 37.0 10.0 6.0 0 52.2 104.5 156.8 209 1 23 0 0 1 0 0 0 0 0 0 0
97 55.0 54.0 10.0 26.0 0 53.5 107 160.5 214 1 7 1 0 0 0 0 1 1 1 0 0
98 4.0 18.0 10.0 35.0 0 45.2 90.5 135.8 181 1 26 0 0 1 0 0 1 0 0 1 0
99 26.0 52.0 10.0 9.0 0 53.8 107.5 161.2 215 1 12 0 0 0 0 0 0 0 1 0 0
100 26.0 35.0 10.0 15.0 77 84.5 92 99.5 107 1 44 0 0 1 0 0 0 1 0 1 0
101 31.0 67.0 10.0 3.0 180 187.5 195 202.5 210 1 95 1 0 0 0 0 0 0 0 0 0
